%%
% Autogenerated by /opt/prj/battleships-ai/src/server/solver.py, instance 2 8x8 [5] #3 <j5zo2k>
% Source: https://www.puzzle-battleships.com/?size=2
%%

size = 8;
hints_num = 2;
hints = [| 2, 3 | 7, 5 |];
ships_num = 9;

constr_rows = [2, 1, 4, 1, 3, 4, 1, 3];
constr_cols = [4, 0, 5, 0, 4, 1, 5, 0];

given_ships = [|
<>, <>, <>, <>, 1, |
<>, <>, <>, <>, 1, |
<>, <>, <>, <>, 1, |
<>, <>, <>, <>, 2, |
<>, <>, <>, <>, 2, |
<>, <>, <>, <>, 2, |
<>, <>, <>, <>, 3, |
<>, <>, <>, <>, 3, |
<>, <>, <>, <>, 4  |];

